 &control
    calculation = 'nscf'
    restart_mode = 'from_scratch',
    prefix = 'si_333_ZG',
    pseudo_dir = './',
    outdir='./'
 /
 &system
    ibrav = 2, 
    celldm(1) = 30.60, 
    nat =  54, 
    ntyp = 1, 
    ecutwfc = 20.0,
    nbnd = 135
    nosym = .true.
 /
 &electrons
    diagonalization='david'
    mixing_mode = 'plain'
    mixing_beta = 0.7
    conv_thr = 1.0d-7
 /
ATOMIC_SPECIES
 Si  28.086  Si.pz-vbc.UPF
ATOMIC_POSITIONS (angstroms)
   Si    0.07465546  -0.02027484   0.01183559
   Si    1.33329554   1.39151777   1.34662616
   Si   -2.60922970   0.02806964   2.69588796
   Si   -1.32825547   1.35256742   4.05861168
   Si   -5.44674121   0.04362480   5.38881120
   Si   -3.94897063   1.41521368   6.60335161
   Si    0.01937609   2.63766580   2.75668998
   Si    1.40534220   4.04872948   4.10027246
   Si   -2.68753424   2.71273306   5.31881072
   Si   -1.35199927   4.01337361   6.72154824
   Si   -5.47927328   2.65667175   8.06878526
   Si   -4.11889235   4.01594142   9.42209619
   Si    0.03018334   5.41296704   5.37361628
   Si    1.33413388   6.70118526   6.72713604
   Si   -2.63823706   5.35541003   8.05477914
   Si   -1.32516775   6.75402773   9.48661239
   Si   -5.41827319   5.43162266  10.72391284
   Si   -4.06165990   6.78646648  12.18326933
   Si   -2.73434097   2.72608119   0.03605985
   Si   -1.35239223   3.93088157   1.35355095
   Si   -5.42697529   2.75597493   2.77444415
   Si   -4.06834601   4.13410654   4.00669900
   Si   -8.18483514   2.59356589   5.44042924
   Si   -6.77719505   4.00363724   6.72266416
   Si   -2.71119855   5.35488848   2.71485590
   Si   -1.34900101   6.79227987   4.09179265
   Si   -5.28934753   5.43188149   5.41660074
   Si   -3.98765665   6.68464175   6.81291699
   Si   -8.06605835   5.38888810   8.11734463
   Si   -6.82345779   6.78525874   9.46462698
   Si   -2.71803217   8.04715625   5.43668224
   Si   -1.41278884   9.37939052   6.77317153
   Si   -5.40819537   8.12931412   8.10234166
   Si   -4.06717842   9.48517010   9.51757562
   Si   -8.08573850   8.04976236  10.79452392
   Si   -6.81672187   9.50112586  12.20255069
   Si   -5.45043182   5.38401765   0.01568966
   Si   -3.97353009   6.67516190   1.32345288
   Si   -8.07193854   5.38461992   2.79698988
   Si   -6.72434723   6.77578279   4.06073249
   Si  -10.74928808   5.45284196   5.43549845
   Si   -9.39131462   6.75482144   6.78180510
   Si   -5.39505085   8.12319924   2.59701177
   Si   -4.04216725   9.42910463   3.95181461
   Si   -8.15219573   8.22342714   5.44474916
   Si   -6.66881630   9.43909943   6.73430000
   Si  -10.83712935   8.02694732   8.03774840
   Si   -9.48183297   9.48568188   9.40030149
   Si   -5.36768284  10.79158325   5.41915444
   Si   -4.01188286  12.18195884   6.68667669
   Si   -8.13141886  10.80125531   8.03576905
   Si   -6.81680804  12.13923450   9.45870628
   Si  -10.80047216  10.81150934  10.72638179
   Si   -9.47394194  12.11289442  12.17639263
K_POINTS crystal
1
 0.794016 0.658943 0.677928 1.0
