&CONTROL
    calculation = "scf"
    max_seconds =  8.64000e+04
 !In the next line provide the address to your own Pseudopotential file
    pseudo_dir  = "."
    tprnfor     = .TRUE.
    tstress     = .TRUE.
/

&SYSTEM
    a                         =  2.7800e+00
    degauss                   =  1.00000e-02
    ecutrho                   =  4.00000e+02
    ecutwfc                   =  4.00000e+01
    ibrav                     = 1
    nat                       = 2
    nspin                     = 2
    ntyp                      = 1
    occupations               = "smearing"
    smearing                  = "gaussian"
    starting_magnetization(1) =  2.00000e-01
/

&ELECTRONS
    conv_thr         =  1.00000e-06
    electron_maxstep = 200
    mixing_beta      =  4.00000e-01
    startingpot      = "atomic"
    startingwfc      = "atomic+random"
/

K_POINTS {automatic}
 6  6  6  0 0 0

ATOMIC_SPECIES
Fe     55.84500  Fe.pbesol-spn-kjpaw_psl.1.0.0.UPF

ATOMIC_POSITIONS {crystal}
Fe      0.000000   0.000000   0.000000
Fe      0.499999   0.500000   0.500000