&BANDS
 prefix='si'
 outdir='./'
 filband='bands.dat'
/

